10
  0  81  50  18  75  39 107  77  87  43
 73   0  76  21  37  26  34  58  66  15
 45  62   0  24  14  58 100  68  33  30
 21  35  39   0  19  58  68  62  84  81
 61  57  45  99   0  31  60  65  29  91
 41  31  65  62  48   0  64  21  42  46
 91  22  94  55  53  52   0  15  55  16
 81  64  71  75  72  35  29   0  17  34
 71  52  21  78  79  35  41  37   0  68
 51  29  43  91 102  96  25  41  72   0

